
Gurobi 9.5.2 (win64) logging started Sun Sep 25 04:30:20 2022

Set parameter LogFile to value "G-05.log"
Gurobi Optimizer version 9.5.2 build v9.5.2rc0 (win64)
Thread count: 4 physical cores, 8 logical processors, using up to 8 threads
Optimize a model with 1407210 rows, 405000 columns and 203608000 nonzeros
Model fingerprint: 0x34409ca2
Variable types: 201000 continuous, 204000 integer (202000 binary)
Coefficient statistics:
  Matrix range     [1e+00, 1e+03]
  Objective range  [1e-01, 9e+00]
  Bounds range     [1e+00, 1e+00]
  RHS range        [1e+00, 1e+03]

Processing user MIP start: 0 nodes explored in subMIP, total elapsed time 123s
Processing user MIP start: 0 nodes explored in subMIP, total elapsed time 200s
Processing user MIP start: 0 nodes explored in subMIP, total elapsed time 280s
Processing user MIP start: 0 nodes explored in subMIP, total elapsed time 346s
User MIP start produced solution with objective 864.972 (352.29s)
Loaded user MIP start with objective 864.972
Processed MIP start in 357.72 seconds (15.31 work units)

Presolve removed 1005000 rows and 0 columns (presolve time = 63s) ...
Presolve removed 1005000 rows and 201000 columns (presolve time = 94s) ...
Presolve removed 1006000 rows and 201000 columns (presolve time = 128s) ...
Presolve removed 1006000 rows and 201000 columns (presolve time = 175s) ...
Presolve removed 1204000 rows and 201000 columns (presolve time = 188s) ...
Presolve removed 1204000 rows and 201000 columns (presolve time = 190s) ...
Presolve removed 1204000 rows and 201000 columns (presolve time = 199s) ...
Presolve removed 1204000 rows and 201000 columns
Presolve time: 199.20s
Presolved: 203210 rows, 204000 columns, 1205000 nonzeros
Crushed 5 out of 1005000 user cuts to presolved model
Variable types: 0 continuous, 204000 integer (202000 binary)
Starting NoRel heuristic
Found heuristic solution: objective 864.2326793
Found heuristic solution: objective 856.2808680
Found heuristic solution: objective 855.7165827
Found heuristic solution: objective 852.7910687
Found heuristic solution: objective 844.7233052
Found heuristic solution: objective 808.8890192
Found heuristic solution: objective 797.2897383
Found heuristic solution: objective 776.6583556
Found heuristic solution: objective 774.0047888
Found heuristic solution: objective 730.3227710
Found heuristic solution: objective 725.2313726
Found heuristic solution: objective 724.4188936
Found heuristic solution: objective 724.3443005
Found heuristic solution: objective 713.8512777
Found heuristic solution: objective 703.0992568
Found heuristic solution: objective 673.2093208
Found heuristic solution: objective 665.4713583
Found heuristic solution: objective 663.3555473
Found heuristic solution: objective 640.9764109
Found heuristic solution: objective 640.3933988
Found heuristic solution: objective 626.7203034
Elapsed time for NoRel heuristic: 6s (best bound 86.665)
Found heuristic solution: objective 622.0020819
Found heuristic solution: objective 621.4022918
Found heuristic solution: objective 606.6027321
Found heuristic solution: objective 572.3041952
Found heuristic solution: objective 570.7277297
Found heuristic solution: objective 564.5532451
Found heuristic solution: objective 562.2544715
Found heuristic solution: objective 545.1917120
Found heuristic solution: objective 543.3095752
Found heuristic solution: objective 536.0230695
Found heuristic solution: objective 534.0605752
Found heuristic solution: objective 533.5206352
Found heuristic solution: objective 527.6348514
Found heuristic solution: objective 516.4133572
Found heuristic solution: objective 515.6704267
Found heuristic solution: objective 514.5962798
Found heuristic solution: objective 512.4168881
Found heuristic solution: objective 507.2189988
Elapsed time for NoRel heuristic: 11s (best bound 86.665)
Found heuristic solution: objective 505.9071972
Found heuristic solution: objective 505.7395959
Found heuristic solution: objective 497.6105179
Found heuristic solution: objective 497.4821183
Found heuristic solution: objective 492.5660128
Found heuristic solution: objective 489.6084682
Found heuristic solution: objective 487.6781275
Found heuristic solution: objective 477.7287044
Found heuristic solution: objective 473.4226984
Found heuristic solution: objective 469.9229781
Found heuristic solution: objective 464.9887954
Found heuristic solution: objective 462.5135144
Found heuristic solution: objective 447.4257449
Found heuristic solution: objective 446.6310357
Found heuristic solution: objective 441.1129281
Elapsed time for NoRel heuristic: 16s (best bound 86.665)
Found heuristic solution: objective 430.8924240
Found heuristic solution: objective 426.3524496
Found heuristic solution: objective 424.2825814
Found heuristic solution: objective 417.9309064
Found heuristic solution: objective 417.4734472
Found heuristic solution: objective 415.9855121
Found heuristic solution: objective 413.2886265
Found heuristic solution: objective 410.7254850
Found heuristic solution: objective 406.8169050
Elapsed time for NoRel heuristic: 22s (best bound 86.665)
Found heuristic solution: objective 400.1227184
Found heuristic solution: objective 396.5066365
Found heuristic solution: objective 394.2267800
Found heuristic solution: objective 391.9664081
Found heuristic solution: objective 391.2418469
Found heuristic solution: objective 391.0292350
Found heuristic solution: objective 386.8578686
Elapsed time for NoRel heuristic: 27s (best bound 94.0271)
Found heuristic solution: objective 386.4624938
Found heuristic solution: objective 386.3207095
Found heuristic solution: objective 379.1861319
Found heuristic solution: objective 370.5446064
Found heuristic solution: objective 368.6143388
Found heuristic solution: objective 365.5642995
Found heuristic solution: objective 363.7835223
Elapsed time for NoRel heuristic: 33s (best bound 94.0271)
Found heuristic solution: objective 362.2119579
Found heuristic solution: objective 360.0583128
Found heuristic solution: objective 358.9994961
Found heuristic solution: objective 357.1584489
Found heuristic solution: objective 355.6255387
Found heuristic solution: objective 353.2676607
Found heuristic solution: objective 352.7691493
Found heuristic solution: objective 351.8772759
Found heuristic solution: objective 350.2614220
Found heuristic solution: objective 348.4098342
Elapsed time for NoRel heuristic: 38s (best bound 94.0271)
Found heuristic solution: objective 347.8572657
Found heuristic solution: objective 346.6993568
Found heuristic solution: objective 345.8977952
Found heuristic solution: objective 345.3347970
Found heuristic solution: objective 345.0171775
Elapsed time for NoRel heuristic: 44s (best bound 96.388)
Found heuristic solution: objective 344.6191911
Found heuristic solution: objective 344.5101207
Found heuristic solution: objective 344.1121343
Found heuristic solution: objective 343.2061691
Found heuristic solution: objective 343.0425403
Found heuristic solution: objective 342.8692568
Elapsed time for NoRel heuristic: 52s (best bound 96.388)
Found heuristic solution: objective 342.7016666
Found heuristic solution: objective 342.0272072
Found heuristic solution: objective 340.8618450
Found heuristic solution: objective 340.6982162
Found heuristic solution: objective 340.6757210
Found heuristic solution: objective 339.5844672
Found heuristic solution: objective 337.1277745
Found heuristic solution: objective 336.0482418
Found heuristic solution: objective 335.2036292
Found heuristic solution: objective 334.7588100
Found heuristic solution: objective 333.7926338
Elapsed time for NoRel heuristic: 57s (best bound 96.388)
Found heuristic solution: objective 333.5345644
Found heuristic solution: objective 331.2890735
Found heuristic solution: objective 330.3483307
Found heuristic solution: objective 329.3625176
Found heuristic solution: objective 328.8250367
Elapsed time for NoRel heuristic: 64s (best bound 96.388)
Found heuristic solution: objective 324.9355858
Found heuristic solution: objective 323.6297028
Found heuristic solution: objective 322.5523385
Found heuristic solution: objective 320.6235539
Found heuristic solution: objective 319.2976393
Found heuristic solution: objective 318.7272028
Found heuristic solution: objective 315.7658917
Elapsed time for NoRel heuristic: 72s (best bound 96.5204)
Found heuristic solution: objective 310.9286965
Found heuristic solution: objective 303.4667263
Elapsed time for NoRel heuristic: 106s (best bound 96.5204)
Found heuristic solution: objective 271.9178841
Found heuristic solution: objective 268.5965183
Elapsed time for NoRel heuristic: 112s (best bound 96.5204)
Found heuristic solution: objective 266.3977556
Found heuristic solution: objective 263.0161570
Found heuristic solution: objective 261.2551370
Elapsed time for NoRel heuristic: 117s (best bound 97.071)
Found heuristic solution: objective 260.8068068
Found heuristic solution: objective 259.4066126
Found heuristic solution: objective 258.0151023
Found heuristic solution: objective 257.5544381
Found heuristic solution: objective 256.1419178
Found heuristic solution: objective 255.8024189
Found heuristic solution: objective 254.7630877
Elapsed time for NoRel heuristic: 124s (best bound 97.071)
Found heuristic solution: objective 254.0930921
Found heuristic solution: objective 253.7849404
Found heuristic solution: objective 253.1086798
Elapsed time for NoRel heuristic: 129s (best bound 97.071)
Found heuristic solution: objective 252.9175486
Found heuristic solution: objective 252.0976068
Found heuristic solution: objective 251.1899363
Elapsed time for NoRel heuristic: 135s (best bound 97.071)
Found heuristic solution: objective 250.9099111
Found heuristic solution: objective 249.7483589
Elapsed time for NoRel heuristic: 143s (best bound 97.071)
Found heuristic solution: objective 248.8616762
Elapsed time for NoRel heuristic: 151s (best bound 97.071)
Found heuristic solution: objective 248.3201644
Elapsed time for NoRel heuristic: 156s (best bound 97.071)
Found heuristic solution: objective 247.9829247
Found heuristic solution: objective 246.5220650
Elapsed time for NoRel heuristic: 165s (best bound 97.071)
Found heuristic solution: objective 244.2846673
Elapsed time for NoRel heuristic: 170s (best bound 97.071)
Found heuristic solution: objective 241.0116464
Found heuristic solution: objective 238.7602406
Elapsed time for NoRel heuristic: 179s (best bound 97.071)
Found heuristic solution: objective 234.7007492
Elapsed time for NoRel heuristic: 185s (best bound 97.071)
Elapsed time for NoRel heuristic: 196s (best bound 97.071)
Found heuristic solution: objective 234.0518239
Found heuristic solution: objective 233.2213278
Found heuristic solution: objective 231.1292391
Elapsed time for NoRel heuristic: 203s (best bound 97.071)
Found heuristic solution: objective 230.7190194
Found heuristic solution: objective 230.5692913
Found heuristic solution: objective 230.1370238
Found heuristic solution: objective 230.0837077
Elapsed time for NoRel heuristic: 211s (best bound 97.071)
Found heuristic solution: objective 229.5017123
Found heuristic solution: objective 226.9770654
Found heuristic solution: objective 222.4233758
Elapsed time for NoRel heuristic: 231s (best bound 97.071)
Found heuristic solution: objective 221.7749015
Found heuristic solution: objective 220.7030021
Elapsed time for NoRel heuristic: 238s (best bound 97.071)
Found heuristic solution: objective 219.1865584
Elapsed time for NoRel heuristic: 245s (best bound 97.071)
Found heuristic solution: objective 216.7875957
Elapsed time for NoRel heuristic: 252s (best bound 97.071)
Found heuristic solution: objective 215.7261540
Elapsed time for NoRel heuristic: 259s (best bound 97.071)
Found heuristic solution: objective 215.0264851
Found heuristic solution: objective 214.9783575
Found heuristic solution: objective 214.9063330
Found heuristic solution: objective 214.8282523
Found heuristic solution: objective 214.7359194
Found heuristic solution: objective 214.3764008
Elapsed time for NoRel heuristic: 265s (best bound 97.071)
Found heuristic solution: objective 213.0758993
Elapsed time for NoRel heuristic: 271s (best bound 97.071)
Found heuristic solution: objective 211.3958663
Elapsed time for NoRel heuristic: 277s (best bound 97.071)
Found heuristic solution: objective 209.8617313
Found heuristic solution: objective 208.0023369
Elapsed time for NoRel heuristic: 302s (best bound 97.071)
Found heuristic solution: objective 205.2118401
Elapsed time for NoRel heuristic: 310s (best bound 97.071)
Found heuristic solution: objective 205.1478485
Found heuristic solution: objective 204.9381547
Found heuristic solution: objective 204.8498909
Elapsed time for NoRel heuristic: 318s (best bound 97.071)
Found heuristic solution: objective 204.0064063
Elapsed time for NoRel heuristic: 325s (best bound 97.071)
Found heuristic solution: objective 202.0330679
Elapsed time for NoRel heuristic: 336s (best bound 97.071)
Found heuristic solution: objective 199.5071474
Elapsed time for NoRel heuristic: 346s (best bound 97.071)
Found heuristic solution: objective 199.2927108
Found heuristic solution: objective 198.9815048
Elapsed time for NoRel heuristic: 356s (best bound 97.071)
Found heuristic solution: objective 198.9411910
Elapsed time for NoRel heuristic: 366s (best bound 97.071)
Found heuristic solution: objective 198.4286519
Found heuristic solution: objective 197.1664895
Elapsed time for NoRel heuristic: 388s (best bound 97.071)
Found heuristic solution: objective 196.4410647
Elapsed time for NoRel heuristic: 399s (best bound 97.071)
Found heuristic solution: objective 195.7954326
Found heuristic solution: objective 194.6294062
Elapsed time for NoRel heuristic: 415s (best bound 97.071)
Found heuristic solution: objective 193.8274172
Elapsed time for NoRel heuristic: 438s (best bound 97.071)
Found heuristic solution: objective 192.8851112
Found heuristic solution: objective 192.7392955
Elapsed time for NoRel heuristic: 450s (best bound 97.071)
Found heuristic solution: objective 192.4432964
Found heuristic solution: objective 190.9571227
Elapsed time for NoRel heuristic: 484s (best bound 97.071)
Found heuristic solution: objective 190.2526843
Elapsed time for NoRel heuristic: 499s (best bound 97.071)
Found heuristic solution: objective 189.4840111
Found heuristic solution: objective 189.4436519
Elapsed time for NoRel heuristic: 511s (best bound 97.071)
Found heuristic solution: objective 188.5000939
Elapsed time for NoRel heuristic: 530s (best bound 97.071)
Found heuristic solution: objective 187.3677284
Elapsed time for NoRel heuristic: 569s (best bound 97.071)
Found heuristic solution: objective 187.1086082
Found heuristic solution: objective 186.2009022
Elapsed time for NoRel heuristic: 584s (best bound 97.071)
Found heuristic solution: objective 185.7930286
Found heuristic solution: objective 185.4400074
Found heuristic solution: objective 185.3659124
Elapsed time for NoRel heuristic: 610s (best bound 97.071)
Found heuristic solution: objective 184.2089151
Elapsed time for NoRel heuristic: 667s (best bound 97.071)
Found heuristic solution: objective 183.8448261
Found heuristic solution: objective 183.7481833
Elapsed time for NoRel heuristic: 703s (best bound 97.071)
Found heuristic solution: objective 183.4506902
Found heuristic solution: objective 182.8396235
Found heuristic solution: objective 179.7896781
Elapsed time for NoRel heuristic: 766s (best bound 97.071)
Found heuristic solution: objective 178.0639470
Elapsed time for NoRel heuristic: 780s (best bound 97.071)
Found heuristic solution: objective 174.5892339
Elapsed time for NoRel heuristic: 809s (best bound 97.071)
Found heuristic solution: objective 171.8216889
Elapsed time for NoRel heuristic: 832s (best bound 97.071)
Found heuristic solution: objective 170.9530030
Elapsed time for NoRel heuristic: 870s (best bound 97.071)
Found heuristic solution: objective 170.7022548
Found heuristic solution: objective 170.4404515
Elapsed time for NoRel heuristic: 903s (best bound 97.071)
Found heuristic solution: objective 170.1978122
Found heuristic solution: objective 169.3502089
Found heuristic solution: objective 168.8799213
Elapsed time for NoRel heuristic: 979s (best bound 97.071)
Found heuristic solution: objective 167.0912380
Elapsed time for NoRel heuristic: 1018s (best bound 97.071)
Found heuristic solution: objective 166.8602098
Found heuristic solution: objective 166.7130542
Elapsed time for NoRel heuristic: 1045s (best bound 97.071)
Found heuristic solution: objective 166.0289629
Found heuristic solution: objective 165.9192956
Elapsed time for NoRel heuristic: 1091s (best bound 97.071)
Found heuristic solution: objective 164.6102829
Elapsed time for NoRel heuristic: 1177s (best bound 97.071)
Found heuristic solution: objective 163.4321107
Elapsed time for NoRel heuristic: 1232s (best bound 97.071)
Found heuristic solution: objective 162.8601923
Elapsed time for NoRel heuristic: 1317s (best bound 97.071)
Found heuristic solution: objective 162.6049339
Found heuristic solution: objective 162.5970649
Found heuristic solution: objective 162.5394430
Elapsed time for NoRel heuristic: 1357s (best bound 97.071)
Found heuristic solution: objective 162.5315740
Found heuristic solution: objective 162.3710296
Found heuristic solution: objective 162.3298466
Elapsed time for NoRel heuristic: 1440s (best bound 97.071)
Found heuristic solution: objective 162.0332516
Found heuristic solution: objective 161.6155413
Elapsed time for NoRel heuristic: 1504s (best bound 97.071)
Found heuristic solution: objective 161.3399642
Elapsed time for NoRel heuristic: 1538s (best bound 97.071)
Found heuristic solution: objective 160.7742097
Elapsed time for NoRel heuristic: 1623s (best bound 97.071)
Found heuristic solution: objective 159.9283022
Elapsed time for NoRel heuristic: 1708s (best bound 97.071)
Found heuristic solution: objective 159.1215241
Elapsed time for NoRel heuristic: 1798s (best bound 97.071)
Found heuristic solution: objective 158.4785814
Elapsed time for NoRel heuristic: 1891s (best bound 97.071)
Found heuristic solution: objective 158.0980547
Elapsed time for NoRel heuristic: 1986s (best bound 97.071)
Found heuristic solution: objective 158.0344343
Found heuristic solution: objective 157.6432768
Elapsed time for NoRel heuristic: 2061s (best bound 97.071)
Found heuristic solution: objective 157.5796564
Elapsed time for NoRel heuristic: 2154s (best bound 97.071)
Found heuristic solution: objective 157.4554292
Found heuristic solution: objective 157.3115440
Found heuristic solution: objective 157.2304942
Elapsed time for NoRel heuristic: 2272s (best bound 97.071)
Found heuristic solution: objective 157.0004313
Found heuristic solution: objective 156.9989275
Found heuristic solution: objective 156.9249399
Elapsed time for NoRel heuristic: 2369s (best bound 97.071)
Found heuristic solution: objective 156.0357694
Elapsed time for NoRel heuristic: 2507s (best bound 97.071)

Deterministic concurrent LP optimizer: primal and dual simplex
Showing first log only...

Root relaxation presolved: 203210 rows, 204000 columns, 1205000 nonzeros


Root simplex log...

Iteration    Objective       Primal Inf.    Dual Inf.      Time
       0    0.0000000e+00   5.054167e+01   1.877020e+08   3169s
    6359    2.4341934e+02   0.000000e+00   2.109051e+03   3170s
   11509    9.7070964e+01   0.000000e+00   0.000000e+00   3172s
   11509    9.7070964e+01   0.000000e+00   0.000000e+00   3172s

Use crossover to convert LP symmetric solution to basic solution...

Root crossover log...

    1304 DPushes remaining with DInf 0.0000000e+00              3172s
       0 DPushes remaining with DInf 0.0000000e+00              3172s

     163 PPushes remaining with PInf 0.0000000e+00              3172s
       0 PPushes remaining with PInf 0.0000000e+00              3172s

  Push phase complete: Pinf 0.0000000e+00, Dinf 2.6095951e+01   3172s


Root simplex log...

Iteration    Objective       Primal Inf.    Dual Inf.      Time
   12965    9.7070964e+01   0.000000e+00   2.609595e+01   3172s
Concurrent spin time: 0.02s

Solved with dual simplex

Root relaxation: objective 9.707096e+01, 4603 iterations, 6.46 seconds (6.34 work units)
Total elapsed time = 3178.81s

    Nodes    |    Current Node    |     Objective Bounds      |     Work
 Expl Unexpl |  Obj  Depth IntInf | Incumbent    BestBd   Gap | It/Node Time

     0     0   97.07096    0 1142  156.03577   97.07096  37.8%     - 3180s
H    0     0                     155.9093449   97.07096  37.7%     - 3188s
     0     0  102.28334    0 1113  155.90934  102.28334  34.4%     - 3213s
H    0     0                     155.8828645  102.28334  34.4%     - 3264s
     0     0  102.36690    0 1249  155.88286  102.36690  34.3%     - 3265s
     0     0  102.36690    0 1407  155.88286  102.36690  34.3%     - 3266s
     0     0  102.49951    0 1408  155.88286  102.49951  34.2%     - 3317s
     0     0  102.58216    0 1372  155.88286  102.58216  34.2%     - 3325s
     0     0  102.64353    0 1479  155.88286  102.64353  34.2%     - 3326s
     0     0  102.64353    0 1498  155.88286  102.64353  34.2%     - 3327s
     0     0  102.91747    0 1400  155.88286  102.91747  34.0%     - 3404s
     0     0  103.15478    0 1219  155.88286  103.15478  33.8%     - 3466s
     0     0  103.15478    0 1242  155.88286  103.15478  33.8%     - 3467s
     0     0  103.87560    0 1337  155.88286  103.87560  33.4%     - 3544s
     0     0  104.12380    0 1388  155.88286  104.12380  33.2%     - 3547s
     0     0  104.13897    0 1437  155.88286  104.13897  33.2%     - 3548s
     0     0  104.13897    0 1434  155.88286  104.13897  33.2%     - 3549s
     0     0  105.06062    0 1372  155.88286  105.06062  32.6%     - 3630s
H    0     0                     155.8407048  105.06062  32.6%     - 3697s
     0     0  105.12010    0 1450  155.84070  105.12010  32.5%     - 3698s
     0     0  105.12010    0 1435  155.84070  105.12010  32.5%     - 3699s
     0     0  105.93681    0 1257  155.84070  105.93681  32.0%     - 3798s
     0     0  106.01361    0 1432  155.84070  106.01361  32.0%     - 3801s
     0     0  106.01768    0 1380  155.84070  106.01768  32.0%     - 3802s
     0     0  106.01768    0 1361  155.84070  106.01768  32.0%     - 3803s
     0     0  106.52488    0 1468  155.84070  106.52488  31.6%     - 3907s
     0     0  106.70866    0 1680  155.84070  106.70866  31.5%     - 3953s
     0     0  106.70866    0 1601  155.84070  106.70866  31.5%     - 3953s
     0     0  107.12701    0 1407  155.84070  107.12701  31.3%     - 4067s
     0     0  107.15530    0 1718  155.84070  107.15530  31.2%     - 4077s
     0     0  107.15625    0 1813  155.84070  107.15625  31.2%     - 4078s
     0     0  107.36063    0 1299  155.84070  107.36063  31.1%     - 4203s
     0     0  107.37533    0 1654  155.84070  107.37533  31.1%     - 4205s
     0     0  107.39263    0 1636  155.84070  107.39263  31.1%     - 4206s
     0     0  107.39263    0 1652  155.84070  107.39263  31.1%     - 4207s
     0     0  107.55543    0 1385  155.84070  107.55543  31.0%     - 4347s
     0     0  107.60583    0 1776  155.84070  107.60583  31.0%     - 4353s
     0     0  107.61044    0 1710  155.84070  107.61044  30.9%     - 4355s
     0     0  107.61044    0 1707  155.84070  107.61044  30.9%     - 4356s
     0     0  107.84360    0 1434  155.84070  107.84360  30.8%     - 4507s
H    0     0                     155.8407048  107.84360  30.8%     - 4553s
     0     0  107.87630    0 1432  155.84070  107.87630  30.8%     - 4555s
     0     0  107.88442    0 1601  155.84070  107.88442  30.8%     - 4557s
     0     0  107.88616    0 1755  155.84070  107.88616  30.8%     - 4558s
     0     0  107.94601    0 1600  155.84070  107.94601  30.7%     - 4687s
H    0     0                     155.8106558  107.94601  30.7%     - 4688s
     0     0  107.96938    0 1707  155.81066  107.96938  30.7%     - 4689s
     0     0  107.96938    0 1686  155.81066  107.96938  30.7%     - 4689s
     0     0  108.04934    0 1681  155.81066  108.04934  30.7%     - 4837s
     0     0  108.08092    0 1730  155.81066  108.08092  30.6%     - 4839s
     0     0  108.08190    0 1771  155.81066  108.08190  30.6%     - 4840s
     0     0  108.23948    0 1596  155.81066  108.23948  30.5%     - 4992s
     0     0  108.25795    0 1930  155.81066  108.25795  30.5%     - 4995s
     0     0  108.27369    0 1983  155.81066  108.27369  30.5%     - 4996s
     0     0  108.27575    0 2024  155.81066  108.27575  30.5%     - 4997s
     0     0  108.38042    0 1664  155.81066  108.38042  30.4%     - 5159s
     0     0  108.39323    0 2124  155.81066  108.39323  30.4%     - 5186s
     0     0  108.39324    0 2074  155.81066  108.39324  30.4%     - 5186s
     0     0  108.43895    0 1664  155.81066  108.43895  30.4%     - 5331s
H    0     0                     155.6567493  108.43895  30.3%     - 5332s
     0     0  108.44276    0 1885  155.65675  108.44276  30.3%     - 5333s
     0     0  108.44422    0 1816  155.65675  108.44422  30.3%     - 5334s
     0     0  108.48229    0 1501  155.65675  108.48229  30.3%     - 5408s
H    0     0                     155.6069699  108.48229  30.3%     - 5436s
     0     0  108.49694    0 2035  155.60697  108.49694  30.3%     - 5437s
     0     0  108.50061    0 2133  155.60697  108.50061  30.3%     - 5439s
     0     0  108.50263    0 2160  155.60697  108.50263  30.3%     - 5439s
     0     0  108.56023    0 1639  155.60697  108.56023  30.2%     - 5576s
     0     0  108.57168    0 2140  155.60697  108.57168  30.2%     - 5582s
     0     0  108.57800    0 2206  155.60697  108.57800  30.2%     - 5583s
     0     0  108.57800    0 2142  155.60697  108.57800  30.2%     - 5584s
     0     0  108.62663    0 1466  155.60697  108.62663  30.2%     - 5707s
H    0     0                     155.3708515  108.62663  30.1%     - 5787s
     0     0  108.63260    0 1804  155.37085  108.63260  30.1%     - 5788s
     0     0  108.63260    0 1874  155.37085  108.63260  30.1%     - 5789s
     0     0  108.67305    0 1623  155.37085  108.67305  30.1%     - 5924s
     0     0  108.67305    0 1831  155.37085  108.67305  30.1%     - 5936s
     0     0  108.67305    0 1735  155.37085  108.67305  30.1%     - 6009s
     0     0  108.67437    0 2065  155.37085  108.67437  30.1%     - 6010s
     0     0  108.68069    0 1827  155.37085  108.68069  30.1%     - 6134s
     0     0  108.68069    0 1824  155.37085  108.68069  30.1%     - 6633s
     0     2  108.68069    0 1761  155.37085  108.68069  30.1%     - 6714s
     1     4  108.69036    1 1776  155.37085  108.69036  30.0%   413 6888s
     3     8  108.75788    2 2106  155.37085  108.69036  30.0%   599 7202s

Cutting planes:
  User: 5
  Learned: 1
  Gomory: 256
  Lift-and-project: 95
  Implied bound: 3191
  Clique: 6
  MIR: 375
  StrongCG: 72
  Flow cover: 1202
  Zero half: 965
  RLT: 17
  Relax-and-lift: 822

Explored 7 nodes (68161 simplex iterations) in 7205.11 seconds (5794.60 work units)
Thread count was 8 (of 8 available processors)

Solution count 10: 155.371 155.607 155.657 ... 156.925

Time limit reached
Best objective 1.553708514654e+02, best bound 1.087578790633e+02, gap 30.0011%
